; ./prepared/seahorn/./sv_comp_flat_small/loop-invgen/down_true-unreach-call.c.flat_000.smt2
(set-logic HORN)


(declare-fun |main_1| ( Int Int Int Int Bool Int Int ) Bool)

(assert
  (forall ( (A Int) (B Int) (C Int) (D Bool) (E Int) (F Int) (v_6 Int) ) 
    (=>
      (and
        (and true (= 0 v_6))
      )
      (main_1 v_6 A B C D E F)
    )
  )
)
(assert
  (forall ( (A Int) (B Int) (C Int) (D Int) (E Bool) (F Int) (G Int) (H Bool) (I Int) (J Bool) (K Bool) (L Bool) (M Bool) (N Bool) (O Int) (P Int) (Q Int) (v_17 Int) (v_18 Int) ) 
    (=>
      (and
        (main_1 v_17 B C D E F G)
        (and (= 0 v_17)
     (or (= O 0) (not K) (not N))
     (or (= A P) (not K) (not N))
     (or (= Q O) (not K) (not N))
     (or (= P 0) (not K) (not N))
     (or J (not H) (not L))
     (or (not M) (and K N))
     (or (not K) (and H L))
     (= M true)
     (not (= (<= I 0) J))
     (= 1 v_18))
      )
      (main_1 v_18 B C I J A Q)
    )
  )
)
(assert
  (forall ( (A Int) (B Int) (C Int) (D Bool) (E Int) (F Int) (G Bool) (H Int) (I Bool) (J Bool) (K Bool) (L Bool) (M Bool) (v_13 Int) (v_14 Int) ) 
    (=>
      (and
        (main_1 v_13 A B C D E F)
        (and (= 0 v_13)
     (or (not I) (not G) (not K))
     (or (not L) (and J M))
     (or (not J) (and K G))
     (or I (not J))
     (= L true)
     (not (= (<= H 0) I))
     (= 3 v_14))
      )
      (main_1 v_14 A B H I E F)
    )
  )
)
(assert
  (forall ( (A Bool) (B Int) (C Int) (D Int) (E Int) (F Bool) (G Int) (H Int) (I Bool) (J Int) (K Int) (L Int) (M Int) (N Int) (O Bool) (P Bool) (v_16 Int) (v_17 Int) ) 
    (=>
      (and
        (main_1 v_16 C D E F G H)
        (and (= 1 v_16)
     (= M (+ 1 G))
     (not (= (<= E M) A))
     (or (= J N) (not I) (not P))
     (or (= B K) (not I) (not P))
     (or (= L J) (not I) (not P))
     (or (= K M) (not I) (not P))
     (or A (not I) (not P))
     (or (not O) (and I P))
     (= O true)
     (= N (+ 1 H))
     (= 1 v_17))
      )
      (main_1 v_17 C D E F B L)
    )
  )
)
(assert
  (forall ( (A Int) (B Int) (C Bool) (D Bool) (E Bool) (F Int) (G Int) (H Int) (I Int) (J Int) (K Bool) (L Int) (M Int) (N Bool) (O Int) (P Int) (Q Bool) (R Bool) (S Int) (T Int) (U Bool) (V Bool) (W Bool) (X Bool) (Y Int) (Z Int) (v_26 Int) (v_27 Int) ) 
    (=>
      (and
        (main_1 v_26 H I J K L M)
        (let ((a!1 (or (not Q) (not (= (<= G (- 1)) C)))))
  (and (= 1 v_26)
       (= O (+ 1 L))
       (not (= (<= J O) E))
       (or (not V) (not D) (not Q))
       (or (= G T) (not N) (not R))
       (or (= F S) (not N) (not R))
       (or (= T M) (not N) (not R))
       (or (= S P) (not N) (not R))
       (or (not E) (not N) (not R))
       (or (not X) (not U) (= B Z))
       (or (not X) (not U) (= A Y))
       (or (not X) (not U) (= Z F))
       (or (not X) (not U) (= Y J))
       (or (not W) (and X U))
       (or (not U) (and Q V))
       a!1
       (or (not Q) (not (= C D)))
       (or (not Q) (and N R))
       (or (not Q) K)
       (= W true)
       (= P (+ 1 M))
       (= 2 v_27)))
      )
      (main_1 v_27 A B J K L M)
    )
  )
)
(assert
  (forall ( (A Bool) (B Bool) (C Bool) (D Int) (E Int) (F Int) (G Int) (H Int) (I Bool) (J Int) (K Int) (L Bool) (M Bool) (N Int) (O Int) (P Bool) (Q Bool) (R Int) (S Int) (T Bool) (v_20 Int) (v_21 Int) ) 
    (=>
      (and
        (main_1 v_20 F G H I J K)
        (let ((a!1 (or (not P) (not (= (<= E (- 1)) A)))))
  (and (= 1 v_20)
       (= O (+ 1 K))
       (not (= (<= H N) C))
       (or (not Q) (not L) (= R O))
       (or (not Q) (not L) (= E S))
       (or (not Q) (not L) (= D R))
       (or (not Q) (not L) (= S K))
       (or (not Q) (not L) (not C))
       (or (not P) B (not T))
       a!1
       (or (not P) (not (= A B)))
       (or (not P) (and Q L))
       (or (not P) I)
       (or (not M) (and P T))
       (= M true)
       (= N (+ 1 J))
       (= 3 v_21)))
      )
      (main_1 v_21 F G H I J K)
    )
  )
)
(assert
  (forall ( (A Bool) (B Bool) (C Bool) (D Int) (E Int) (F Int) (G Int) (H Int) (I Bool) (J Int) (K Int) (L Bool) (M Int) (N Int) (O Int) (P Int) (Q Bool) (R Bool) (v_18 Int) (v_19 Int) ) 
    (=>
      (and
        (main_1 v_18 F G H I J K)
        (and (= 2 v_18)
     (= O (+ (- 1) F))
     (not (= (<= F 1) A))
     (not (= (<= G 1) B))
     (not (= B C))
     (or (= E N) (not L) (not R))
     (or (= D M) (not L) (not R))
     (or (= N P) (not L) (not R))
     (or (= M O) (not L) (not R))
     (or (not C) (not L) (not R))
     (or (not Q) (and L R))
     (= A true)
     (= Q true)
     (= P (+ (- 1) G))
     (= 2 v_19))
      )
      (main_1 v_19 D E H I J K)
    )
  )
)
(assert
  (forall ( (A Bool) (B Bool) (C Bool) (D Int) (E Int) (F Int) (G Bool) (H Int) (I Int) (J Bool) (K Bool) (L Int) (M Int) (N Bool) (O Bool) (P Bool) (v_16 Int) (v_17 Int) ) 
    (=>
      (and
        (main_1 v_16 D E F G H I)
        (and (= 2 v_16)
     (= L (+ (- 1) D))
     (not (= (<= D 1) A))
     (not (= (<= E 1) B))
     (not (= B C))
     (or C (not K) (not O))
     (or (not J) (and N P))
     (or (not N) (and K O))
     (= A true)
     (= J true)
     (= M (+ (- 1) E))
     (= 3 v_17))
      )
      (main_1 v_17 D E F G H I)
    )
  )
)
(assert
  (forall ( (A Int) (B Int) (C Int) (D Bool) (E Int) (F Int) (v_6 Int) ) 
    (=>
      (and
        (main_1 v_6 A B C D E F)
        (= 3 v_6)
      )
      false
    )
  )
)

(check-sat)
(exit)
